c Maximum weighted clique instances generated from exactcolors.
c cutoff: 1379244.
c A clique of value > scalef (1379244) defines an improving stable sets for coloring.
p edge 8 0
n 1 1379243
n 2 1379243
n 3 1379243
n 4 1379243
n 5 1379243
n 6 1379243
n 7 1379243
n 8 1379243
